c User generated cnf file
p cnf 11 18
-6 11 7 0 
3 5 -4 0 
6 7 -4 0 
-9 1 7 0 
-6 6 10 0 
-7 10 2 0 
8 6 -5 0 
6 -11 6 0 
-6 11 10 0 
11 10 -8 0 
7 8 -3 0 
7 9 -10 0 
-11 8 11 0 
9 -4 4 0 
-3 7 6 0 
10 8 -11 0 
-5 8 7 0 
6 -11 1 0 
